35559:1 42582:1 47246:1 47458:1
5262 1:1 19:1 249:1 2233:1 2402:1 3310:1
5441:1 5453:1 5456:1 9216:1 12329:1 15427:1
17210:1 20935:1 22347:1 22348:1 22425:1
23230:1 26267:1 26804:1 26820:1 27267:1
29600:1 30713:1 30714:1 30887:1 31126:1
31448:1 31849:1 32231:1 32485:1 33322:1
33703:1 33974:1 44370:1 44371:1 44373:1
47252:1 47701:1 48217:1 48235:1 48238:1
48256:1
1006 12:1 30:1 946:1 1794:1 2553:1 4663:1
5449:1 5453:1 5456:1 7777:1 8736:1 10400:1
3958 15:1 33:1 429:1 2530:1 5447:1 5456:1
9838:1 10784:1 23259:1 27358:1 27686:1 31463:1
44144:1 47243:1 48232:1 48236:1 48253:1
317 2:1 20:1 308:1 1303:1 2583:1 2693:1 5441:1
5453:1 5456:1 9127:1 12276:1 22773:1 23740:1
25946:1 26438:1 27884:1 28010:1 28468:1
29486:1 31451:1 31832:1 32211:1 32507:1
33322:1 33679:1 33974:1 36458:1 47251:1
47728:1 48218:1 48236:1 48240:1 48256:1
48321:1
4285 9:1 27:1 977:1 2078:1 2368:1 3281:1
5441:1 5453:1 5456:1 8643:1 8786:1 13083:1
13593:1 16057:1 16612:1 16825:2 17679:1
17700:1 17809:1 18394:2 19923:1 21009:1
21044:1 31459:1 31475:1 32296:1 32580:1
33088:1 33754:1 34105:1 44733:1 47252:1
48217:1 48256:1
3049 4:1 22:1 252:1 2424:1 5447:1 5456:1
9294:1 9930:1 15144:3 16797:3 18035:3 19480:3
20430:3 26744:1 26822:1 27107:1 31452:1
43068:3 47251:1 48217:1 48235:1 48238:1
1140 6:1 24:1 438:1 2258:1 5447:1 5456:1
9244:1 9930:1 11658:1 11968:2 12396:1 13484:1
14752:1 15023:1 16359:1 21002:1 21126:1
21238:1 31454:1 43280:1 43638:1 45625:1
46895:1 47186:1 47252:1 48222:1 48236:1
48243:1
783 6:1 24:1 451:1 1223:1 2445:1 5381:1 5441:1
5453:1 5456:1 9451:1 11442:1 30173:1 31456:1
31916:1 32237:1 32442:1 33283:1 33938:1
34170:1 47251:1 47807:1 48220:1 48235:1
48243:1 48256:1
2473 4:1 22:1 1034:1 1587:1 2423:1 3548:1
5441:1 5453:1 5456:1 9223:1 13801:1 14813:1
16441:2 17716:1 21840:1 26267:1 31455:1
31837:1 32253:1 32673:1 33506:1 33908:1
34042:1 47139:1 47143:1 47252:1 48139:1
48220:1 48236:1 48244:1
406 4:1 22:1 413:1 2580:1 5447:1 5456:1 9337:1
10888:1 11724:1 14738:1 15213:1 17966:1
30060:1 30094:1 30180:1 31454:1 41278:1
47252:1 48220:1 48236:1 48244:1
2027 8:1 26:1 430:1 2530:1 5447:1 5456:1
9465:1 9930:1 11303:1 11714:1 12881:1 14076:1
14731:1 15213:1 16939:1 16972:1 17054:1
18055:1 18116:2 18627:1 20559:1 21810:1
22577:2 43538:1 45133:1 45393:1 47252:1
48223:1 48236:1 48244:1
2970 5:1 23:1 219:1 1664:1 2403:1 3410:1
5441:1 5453:1 5456:1 9617:1 10349:1 11179:2
13317:1 15338:1 15797:1 16683:1 19339:2
31969:1 32288:1 32765:1 33322:1 33679:1
33974:1 43096:2 44085:1 47252:1 47685:1
48221:1 48236:1 48238:1 48256:1
93 14:1 32:1 680:1 1825:1 2590:1 3189:1 5441:1
5453:1 5456:1 5843:1 8934:1 12466:1 22934:1
22947:1 23194:1 23243:1 23649:1 23743:1
23770:1 23800:1 23802:1 23846:1 23924:1
24473:1 24695:1 24774:3 24851:1 24875:1
25307:1 25311:1 25548:1 26007:1 26081:1
26240:1 26242:3 26252:1 26284:1 26675:1
26761:1 26791:1 26792:1 26805:1 26987:1
27242:1 27352:1 27567:1 27568:1 27571:1
27641:2 27744:1 27861:1 27999:1 28124:1
28307:1 28456:1 29057:1 29236:1 29261:1
29393:1 29601:1 29648:1 29657:1 29805:1
30016:1 30017:1 30040:2 30042:1 30051:1
30075:1 30079:1 30582:1 30583:2 30584:1
30773:1 30977:1 31049:2 31054:1 31078:1
31363:1 31462:1 31848:1 32325:1 32777:1
33322:1 33692:1 33974:1 35064:1 45316:1
47252:1 47940:1 48231:1 48236:1 48252:1
48256:1
93 1:1 19:1 680:1 1825:1 2523:1 3236:1 5441:1
5453:1 5456:1 5801:1 8934:1 12466:3 22934:1
22947:1 23194:1 23243:1 23649:1 23743:1
23770:1 23800:1 23802:1 23846:1 23924:1
24473:1 24695:1 24774:3 24851:1 24875:1
25307:1 25311:1 25548:1 26007:1 26081:1
26240:1 26242:3 26252:1 26284:1 26675:1
26761:1 26791:1 26792:1 26805:1 26987:1
27242:1 27352:1 27567:1 27568:1 27571:1
27641:2 27744:1 27861:1 27999:1 28124:1
28307:1 28456:1 29057:1 29236:1 29261:1
29393:1 29601:1 29648:1 29657:1 29805:1
30016:1 30017:1 30040:2 30042:1 30051:1
30075:1 30079:1 30582:1 30583:2 30584:1
30773:1 30977:1 31049:2 31054:1 31078:1
31363:1 31448:1 31848:1 32325:1 32777:1
33322:1 33679:1 33974:1 35020:1 45316:3
47252:1 47940:1 48217:1 48236:1 48238:1
48256:1
4453 4:1 22:1 52:1 2062:1 2523:1 3877:1 5441:1
5453:1 5456:1 9090:1 13881:1 14794:1 14805:1
15661:1 17607:1 19039:1 19089:1 19097:1
20935:1 22747:1 31855:1 32231:1 32489:1
33322:1 33679:1 33974:1 44249:1 44250:1
44251:1 44252:1 44253:1 47243:1 47602:1
48220:1 48235:1
4853 16:1 34:1 1132:1 2561:1 5447:1 5456:1
8520:1 9212:1 10069:1 15039:1 17628:1 31463:1
46535:1 47251:1 48232:1 48236:1
3920 16:1 34:1 475:1 2553:1 5447:1 5456:1
8421:1 9725:1 9930:1 18309:1 26850:1 27658:1
27659:1 28010:1 28218:1 31463:1 44271:1
47252:1 48232:1 48236:1
4532 4:1 22:1 613:1 2132:1 2379:1 5376:1
5441:1 5453:1 5456:1 9179:1 12097:3 16007:1
17277:1 18616:1 21241:3 31449:1 31830:1
32302:1 32578:1 33565:1 33948:1 34102:1
34558:1 37689:1 39982:1 39983:1 39984:1
47243:1 47897:1 48220:1 48236:1 48239:1
654 4:1 22:1 809:1 1915:1 2553:1 4689:1 5441:1
5453:1 5456:1 9247:1 10952:1 12158:1 15040:1
20128:1 20865:1 27023:1 31454:1 31716:1
32219:1 32543:1 33322:1 33692:1 33974:1
47252:1 48015:1 48219:1 48236:1 48243:1
1122 11:1 29:1 662:1 1279:1 2357:1 5315:1
5441:1 5453:1 5456:1 9766:1 10792:1 16208:1
17768:1 18219:1 19877:1 20474:1 20798:1
23194:1 23490:1 23736:1 23737:1 23800:1
23924:1 24774:2 25856:2 25868:1 25872:1
26077:1 26081:1 26234:1 26242:1 26251:1
26769:1 26788:1 27043:1 27064:1 27087:1
27234:1 27641:1 27744:1 27837:1 27960:1
29261:1 29655:1 29675:1 29693:1 30008:1
30009:1 30975:1 31059:1 31221:1 31454:1
31926:1 32209:1 32435:1 33062:1 33917:1
34043:1 36389:1 47252:1 47929:1 48227:1
48236:1 48243:1 48256:1
135 6:1 24:1 1145:1 1214:1 2594:1 3333:1
5441:1 5453:1 5456:1 9466:1 13540:1 14904:1
21386:1 31718:1 32215:1 32538:1 33322:1
33679:1 33974:1 35212:1 47110:1 47252:1
48205:1 48222:1 48236:1 48246:1 48256:1
48435:1
4105 6:1 24:1 158:1 1977:1 2408:1 5411:1
5441:1 5454:1 5456:1 9319:1 47300:1 48222:1
2963 1:1 19:1 1144:1 1704:1 2423:1 3548:1
5441:1 5453:1 5456:1 9467:1 10712:1 12474:1
15422:1 16305:1 16549:1 18210:1 20427:1
22672:1 31111:1 31449:1 31820:1 32310:1
32693:1 33514:1 33679:1 33973:1 34315:1
46691:2 47252:1 48204:1 48217:1 48236:1
48239:1 48256:1
220 12:1 30:1 535:1 1841:1 2583:1 2877:1
5441:1 5453:1 5456:1 8831:1 9957:1 12466:2
16396:1 20798:1 21364:1 25864:1 26612:1
26619:1 27641:1 29486:1 30183:1 30879:1
31056:1 31459:1 31729:1 32379:1 32590:1
33322:1 33679:1 33974:1 36224:1 47252:1
47859:1 48228:1 48236:1 48249:1 48256:1
1216 1:1 19:1 315:1 1307:1 2440:1 4979:1
5441:1 5453:1 5456:1 8414:1 9251:1 12221:1
12455:1 16574:1 17611:1 18453:1 18591:1
24720:1 26158:1 31448:1 31914:1 32370:1
32430:1 33322:1 33679:1 33974:1 45913:1
47243:1 47732:1 48217:1 48236:1 48238:1
48256:1
1006 1:1 19:1 946:1 1794:1 2458:1 4785:1
5449:1 5453:1 5456:1 7727:1 8736:1 10400:1
4538 3:1 21:1 613:1 2132:1 2412:1 3665:1
5441:1 5453:1 5456:1 9179:1 22963:9 24774:4
25946:5 26158:4 27418:3 27734:1 27801:1
27823:2 28010:4 29258:3 30022:4 30151:1
30491:2 30631:4 31451:1 31893:1 32377:1
32430:1 33322:1 33679:1 33974:1 36594:1
46688:4 47243:1 47897:1 48219:1 48236:1
48240:1
3536 16:1 34:1 631:1 1816:1 2561:1 3739:1
5441:1 5453:1 5456:1 8184:1 9378:1 11668:1
12993:2 13881:2 15044:1 17780:2 18024:2
21773:2 23355:1 24048:2 24774:2 25631:1
27866:2 28020:2 30655:2 31464:1 31835:1
32245:1 32508:1 33322:1 33679:1 33974:1
35269:1 47252:1 47452:1 48217:1 48235:1
48256:1
2510 13:1 31:1 135:1 1600:1 2516:1 2933:1
5441:1 5453:1 5456:1 9285:1 13339:1 21906:1
31461:1 31714:1 32244:1 32705:1 33292:1
33774:1 34146:1 42907:1 47252:1 48217:1
48235:1 48238:1 48256:1
3186 5:1 23:1 244:1 1796:1 2553:1 4600:1
5450:1 5453:1 5456:1 7141:1 8736:1 10401:1
2571 4:1 22:1 166:1 1556:1 2443:1 5267:1
5441:1 5453:1 5456:1 9025:1 10050:1 10959:1
12474:1 12482:1 13461:1 18219:1 22075:1
22577:1 31449:1 31851:1 32258:1 32736:1
33322:1 33679:1 33974:1 36400:1 47251:1
47661:1 48219:1 48236:1 48239:1
1006 7:1 25:1 907:1 1802:1 2523:1 4163:1
5449:1 5453:1 5456:1 7857:1 8736:1 10400:1
1006 3:1 21:1 907:1 1802:1 2523:1 4165:1
5449:1 5453:1 5456:1 7852:1 8736:1 10400:1
2008 3:1 21:1 878:1 1421:1 2394:1 3078:1
5441:1 5453:1 5456:1 6008:1 9877:1 11985:1
12158:1 12159:1 12428:1 12881:1 13364:1
14386:1 15213:1 15579:2 16622:1 17628:2
17745:1 18753:1 20984:1 22229:1 31448:1
31692:1 32231:1 32482:1 33322:1 33679:1
33974:1 45524:1 47252:1 48053:1 48219:1
48236:1 48238:1 48256:1
3049 3:1 21:1 252:1 2387:1 5447:1 5456:1
9294:1 9930:1 14774:1 18034:1 20421:1 21729:1
26744:1 26822:1 27107:1 31452:1 43066:1
47251:1 48217:1 48235:1 48238:1
3115 2:1 20:1 371:1 1751:1 2409:1 5108:1
5441:1 5453:1 5456:1 8434:1 9368:1 10367:1
11764:1 12207:1 17611:1 19615:1 20089:1
31646:1 32219:1 32536:1 33048:1 33679:1
33974:1 47251:1 47761:1 48218:1 48236:1
48240:1 48256:1
5121 4:1 22:1 223:1 2434:1 5447:1 5456:1
5791:1 9293:1 9930:1 10959:3 11700:3 12268:3
12441:3 12484:3 12879:3 12969:6 22577:3
22898:1 23303:3 23422:1 23578:1 23593:1
23613:2 23742:1 23896:1 23924:1 23944:1
23984:1 23986:1 23991:1 24046:1 24140:1
24592:2 24600:1 24685:1 25089:1 25873:1
26537:1 26959:1 27015:1 27650:1 28654:2
28794:1 29432:1 29471:1 30794:1 31036:1
31183:1 31198:1 31199:1 31428:1 31429:1
31449:1 34891:1 47251:1 48220:1 48236:1
48239:1
3867 12:1 30:1 199:1 1800:1 2326:1 3648:1
5449:1 5453:1 5456:1 8089:1 8736:1 10400:1
315 4:1 22:1 308:1 2482:1 5447:1 5456:1 9127:1
9930:1 12276:1 13801:1 16441:3 17716:1 22759:2
25421:1 25430:1 25946:1 26102:1 27884:1
29486:1 30675:1 30749:1 31453:1 34810:1
47251:1 48220:1 48236:1 48242:1 48679:1
1860 8:1 26:1 838:1 2204:1 2523:1 3754:1
5441:1 5453:1 5456:1 9000:1 10377:1 12682:1
18236:1 24925:1 26204:1 27714:1 31458:1
31537:1 32231:1 32484:1 47251:1 48032:1
48224:1 48236:1 48247:1 48256:1
3805 7:1 25:1 418:1 1911:1 2357:1 5315:1
5441:1 5453:1 5456:1 9150:1 10769:1 14787:1
15392:1 20681:1 31818:1 32215:1 32538:1
33322:1 33679:1 33974:1 34952:1 47108:1
47252:1 47792:1 48223:1 48236:1 48246:1
48256:1 48629:1
3257 14:1 32:1 927:1 1860:1 2561:1 3695:1
5441:1 5454:1 5456:1 9501:1 47531:1 48217:1
3061 12:1 30:1 252:1 1735:1 2505:1 3101:1
5441:1 5453:1 5456:1 9294:1 14774:3 15144:19
16797:19 18034:3 18035:19 19480:19 20421:3
20430:19 21729:3 26744:1 26822:1 27107:1
31454:1 31917:1 32237:1 32483:1 33025:1
33709:1 34118:1 43066:3 43068:19 47251:1
47704:1 48217:1 48235:1 48238:1 48256:1
3186 15:1 33:1 907:1 1802:1 2523:1 4021:1
5449:1 5453:1 5456:1 7153:1 8736:1 10401:1
1006 2:1 20:1 946:1 1794:1 2328:1 3017:1
5449:1 5453:1 5456:1 7689:1 8736:1 10400:1
4648 9:1 27:1 613:1 2132:1 2491:1 3766:1
5441:1 5453:1 5456:1 9179:1 12097:11 21241:11
31452:1 31830:1 32302:1 32578:1 32897:1
33824:1 33970:1 34607:1 38123:1 38349:1
38350:1 38351:1 38352:1 38353:1 38446:1
39682:1 40229:1 40230:1 41090:1 47243:1
47897:1 48225:1 48236:1 48241:1
1337 1:1 19:1 656:1 1982:1 2553:1 4491:1
5441:1 5453:1 5456:1 8754:1 11920:1 15837:1
31450:1 32021:1 32231:1 32442:1 33181:1
33679:1 33974:1 35507:1 42423:1 47246:1
47458:1
807 5:1 23:1 270:1 1192:1 2511:1 2967:1 5441:1
5454:1 5456:1 9665:1 47346:1 48220:1
259 7:1 25:1 842:1 1280:1 2583:1 4734:1 5441:1
5454:1 5456:1 9064:1 47511:1 48223:1
403 11:1 29:1 1032:1 2520:1 5447:1 5456:1
8611:1 9663:1 9930:1 15316:2 17110:2 23223:1
24774:2 26078:1 28437:1 29612:1 29977:1
31460:1 46472:2 47243:1 48227:1 48236:1
48249:1
3186 8:1 26:1 244:1 1796:1 2479:1 5168:1
5449:1 5453:1 5456:1 6659:1 8736:1 10400:1
2812 13:1 31:1 110:1 2530:1 5447:1 5456:1
9666:1 10433:1 11057:1 11077:2 11184:1 11225:1
11276:1 11288:1 11291:1 11295:1 11319:3
11326:1 11371:2 11433:1 12364:3 12380:2
12392:1 12506:1 12979:1 13088:1 13089:1
13090:4 13093:2 13115:1 13141:1 13159:1
13174:1 13179:1 13225:1 13228:1 13287:1
13534:1 13684:1 13749:2 13809:1 13810:1
13931:1 13936:1 13937:1 13939:1 13990:1
14017:1 14018:1 14074:5 14081:1 14143:60
14283:1 14381:1 14414:4 14433:1 14437:1
14501:2 14568:1 14588:5 14889:1 14964:1
15106:1 15174:1 15225:1 15226:2 15483:1
15520:1 15623:1 15681:1 15919:1 16057:1
16441:1 16442:1 16607:2 16614:1 16615:1
16618:1 16642:1 16643:4 16676:1 16706:1
16766:1 16803:1 16876:3 16877:1 16891:1
16917:1 17181:3 17202:59 17204:1 17249:1
17458:1 17566:4 17620:2 17768:1 17818:1
17823:1 17940:1 18095:1 18099:1 18157:3
18197:60 18205:1 18276:1 18334:1 18507:1
18530:1 18532:1 18654:60 18874:1 19026:1
19080:1 19127:1 19255:1 19307:1 19341:1
19348:1 19477:1 19506:1 19540:1 19547:1
19548:1 19567:1 19571:1 19589:2 19590:1
19650:1 19867:1 19997:1 20362:2 20637:1
20650:1 20657:1 20662:2 20967:1 21044:1
21151:3 21158:2 21261:1 21537:1 21922:1
22084:2 22235:3 22247:1 22508:1 22840:1
22844:1 31451:1 46074:1 46114:1 46115:1
46116:1 46117:1 46118:1 46125:1 46144:1
46145:1 46146:1 46147:1 46148:1 46149:1
46150:1 46151:1 46152:1 46153:2 46154:1
46155:1 46157:1 46159:1 46160:1 46161:1
46162:1 46163:1 46164:1 46165:1 46166:2
46168:1 46169:2 46170:2 46171:1 46172:1
46173:1 46174:1 46175:1 46176:1 46178:1
46179:3 46180:1 46181:1 46182:1 46183:1
46184:2 46185:1 46186:4 46187:1 46188:1
46189:1 46194:1 47251:1 48229:1 48236:1
48240:1 48461:1
3539 15:1 33:1 631:1 1816:1 2547:1 2897:1
5441:1 5453:1 5456:1 6059:1 9378:1 12311:1
12329:1 12992:1 14978:1 17751:1 18979:1
19682:1 21158:1 21248:1 23611:1 23622:1
24047:1 25600:1 27836:1 28670:1 29200:1
30200:1 30242:1 31463:1 31835:1 32245:1
32508:1 33271:1 33692:1 34096:1 35307:1
47252:1 47452:1 48217:1 48235:1 48256:1
3186 2:1 20:1 946:1 1794:1 2324:1 3106:1
5449:1 5453:1 5456:1 6414:1 8736:1 10400:1
4503 2:1 20:1 613:1 2132:1 2373:1 2905:1
5441:1 5453:1 5456:1 9179:1 22963:2 23143:2
24774:2 26158:2 26435:2 27735:2 28010:2
30022:2 31450:1 31893:1 32377:1 32430:1
33322:1 33679:1 33974:1 36551:1 46688:2
47243:1 47897:1 48218:1 48236:1 48239:1
1006 2:1 20:1 946:1 1794:1 2370:1 3451:1
5449:1 5453:1 5456:1 6485:1 8736:1 10400:1
2272 12:1 30:1 477:1 1479:1 2553:1 4708:1
5441:1 5453:1 5456:1 9392:1 20108:1 22717:1
31460:1 31835:1 32245:1 32508:1 33312:1
33824:1 33970:1 34841:1 47251:1 47401:1
48228:1 48235:1 48250:1 48256:1 48666:1
4019 4:1 22:1 907:1 1802:1 2481:1 4333:1
5449:1 5453:1 5456:1 7300:1 8736:1 10400:1
3590 3:1 21:1 93:1 2258:1 5447:1 5456:1 9196:1
10736:1 11120:1 11199:1 12470:2 12471:1
12472:1 12474:2 12482:1 12497:1 12533:1
12627:1 12741:1 12824:1 13084:1 13515:1
13881:2 13897:1 14303:1 15343:1 16147:1
16440:1 17035:1 17120:1 17129:1 17132:1
17136:1 17157:1 17174:1 17481:1 17571:10
17725:1 17806:1 18020:1 18219:2 18435:1
18482:1 18936:1 18943:1 20444:1 20459:1
20460:1 20463:1 20779:1 21132:1 21335:1
21388:1 21676:1 21925:1 22187:1 22199:1
22319:1 22376:1 22573:1 22608:1 23720:1
25316:1 29262:1 31449:1 47252:1 48219:1
48236:1 48239:1
4407 10:1 28:1 907:1 1802:1 2481:1 04371:1
5450:1 5453:1 5456:1 7913:1 8736:1 10401:1
1671 4:1 22:1 656:1 1982:1 2562:1 5187:1
5441:1 5453:1 5456:1 8754:1 15007:1 19062:1
19668:1 20077:1 31451:1 32021:1 32231:1
32442:1 33456:1 33804:1 34140:01 35640:1
41419:1 42217:1 47246:1 47458:1
1006 10:1 28:1 946:1 1794:1 2324:1 3106:1
5449:1 5453:1 5456:1 6473:1 8736:1 10401:1
4945 9:1 27:1 613:1 2132:1 2481:1 4202:1
5441:1 5453:1 5456:1 9179:1 12097:7 21241:7
31452:1 31830:1 32302:1 32578:1 32897:1
33824:1 33970:1 34707:1 37896:1 396
